NAME : DD40.1352187.tour
COMMENT : Cost = 0_1352187
COMMENT : Found by LKH [Keld Helsgaun] Sun Apr 23 15:14:36 2017
TYPE : TOUR
DIMENSION : 83
TOUR_SECTION
1
5
45
16
56
28
68
7
47
35
75
36
76
33
73
13
53
9
49
20
60
31
71
6
46
18
58
83
8
10
48
14
50
54
11
23
51
63
26
66
41
81
29
17
57
69
19
59
15
55
4
44
21
37
61
77
82
38
3
78
39
79
43
2
32
72
24
42
25
64
12
52
40
65
27
67
80
22
34
62
74
30
70
-1
EOF
